p edge 50 134 20
v 1 5
v 2 29 32
v 3 12 14 47
v 3 7 16 44
v 3 8 25 43
v 2 2 36
v 2 18 39
v 2 11 37
v 2 27 38
v 5 4 10 13 45 49
v 4 9 21 34 42
v 2 15 40
v 4 17 20 30 31
v 4 3 28 35 46
v 1 48
v 2 22 50
v 3 23 24 26
v 2 1 19
v 1 33
v 2 6 41
e 1 23
e 1 38
e 1 40
e 2 3
e 2 12
e 2 20
e 2 41
e 3 13
e 3 23
e 3 30
e 3 34
e 3 40
e 3 41
e 3 47
e 3 50
e 4 13
e 4 19
e 4 37
e 4 44
e 4 47
e 5 6
e 5 20
e 5 24
e 5 33
e 5 34
e 5 42
e 6 13
e 6 20
e 6 36
e 6 38
e 6 49
e 7 10
e 7 16
e 7 27
e 7 31
e 8 9
e 8 10
e 8 16
e 8 21
e 8 30
e 8 31
e 8 42
e 9 13
e 9 15
e 9 21
e 9 24
e 9 33
e 10 17
e 10 21
e 10 23
e 10 25
e 10 34
e 11 24
e 11 26
e 11 28
e 11 31
e 11 35
e 11 36
e 11 46
e 12 15
e 12 27
e 12 29
e 12 38
e 12 43
e 13 18
e 13 21
e 13 45
e 14 16
e 14 32
e 14 42
e 14 49
e 15 39
e 15 42
e 15 48
e 16 17
e 16 25
e 16 30
e 16 33
e 17 21
e 17 45
e 18 19
e 19 21
e 19 35
e 19 41
e 20 27
e 20 37
e 20 47
e 21 46
e 22 34
e 22 42
e 23 39
e 23 43
e 24 33
e 24 36
e 25 32
e 25 34
e 25 40
e 25 43
e 26 29
e 27 29
e 27 38
e 27 39
e 27 43
e 27 48
e 27 49
e 28 50
e 29 31
e 29 32
e 29 46
e 30 36
e 30 45
e 30 50
e 31 32
e 31 49
e 32 41
e 32 43
e 32 48
e 33 44
e 34 37
e 34 41
e 36 42
e 37 49
e 39 42
e 39 49
e 40 41
e 40 47
e 40 49
e 40 50
e 41 45
e 42 45
e 44 45
e 46 49
e 47 49
e 48 50
